120
150
70
78
31
43
35
73
77
74
39
92
33
88
83
43
58
39
27
88
97
61
53
39
35
71
58
47
70
96
88
59
54
70
80
23
43
66
23
24
98
36
100
84
59
22
50
91
74
92
76
56
70
96
50
54
54
35
31
25
97
84
31
51
36
40
37
74
39
38
31
81
35
25
88
50
100
54
96
82
35
33
74
76
30
59
36
71
44
67
25
50
97
96
35
70
53
100
54
100
80
80
50
82
80
70
20
33
50
100
68
23
72
70
88
50
91
30
48
61
59
22
